c
c File made with value :
c	m = 4
c	p = 50
c
c Clauses 0 = 95
c Clauses 1 = 97
c
p cnf 288 768
      1       2       3 0
     -1      -2       3 0
     -1       2      -3 0
      1      -2      -3 0
     -4      -2      -5 0
     -4       2       5 0
      4      -2       5 0
      4       2      -5 0
      6       5       7 0
     -6      -5       7 0
     -6       5      -7 0
      6      -5      -7 0
     -8      -7      -9 0
     -8       7       9 0
      8      -7       9 0
      8       7      -9 0
     10       9       3 0
    -10      -9       3 0
    -10       9      -3 0
     10      -9      -3 0
     -1     -11     -12 0
     -1      11      12 0
      1     -11      12 0
      1      11     -12 0
     13      11      14 0
    -13     -11      14 0
    -13      11     -14 0
     13     -11     -14 0
    -15     -14     -16 0
    -15      14      16 0
     15     -14      16 0
     15      14     -16 0
     17      16      18 0
    -17     -16      18 0
    -17      16     -18 0
     17     -16     -18 0
    -19     -18     -20 0
    -19      18      20 0
     19     -18      20 0
     19      18     -20 0
     21      20      12 0
    -21     -20      12 0
    -21      20     -12 0
     21     -20     -12 0
    -13     -22     -23 0
    -13      22      23 0
     13     -22      23 0
     13      22     -23 0
     24      22      25 0
    -24     -22      25 0
    -24      22     -25 0
     24     -22     -25 0
    -26     -25     -27 0
    -26      25      27 0
     26     -25      27 0
     26      25     -27 0
     28      27      29 0
    -28     -27      29 0
    -28      27     -29 0
     28     -27     -29 0
    -30     -29     -31 0
    -30      29      31 0
     30     -29      31 0
     30      29     -31 0
     32      31      23 0
    -32     -31      23 0
    -32      31     -23 0
     32     -31     -23 0
    -24     -33     -34 0
    -24      33      34 0
     24     -33      34 0
     24      33     -34 0
     35      33      36 0
    -35     -33      36 0
    -35      33     -36 0
     35     -33     -36 0
    -37     -36     -38 0
    -37      36      38 0
     37     -36      38 0
     37      36     -38 0
     39      38      40 0
    -39     -38      40 0
    -39      38     -40 0
     39     -38     -40 0
    -41     -40     -34 0
    -41      40      34 0
     41     -40      34 0
     41      40     -34 0
     35      42      43 0
    -35     -42      43 0
    -35      42     -43 0
     35     -42     -43 0
    -44     -42     -45 0
    -44      42      45 0
     44     -42      45 0
     44      42     -45 0
     46      45      47 0
    -46     -45      47 0
    -46      45     -47 0
     46     -45     -47 0
    -48     -47     -49 0
    -48      47      49 0
     48     -47      49 0
     48      47     -49 0
     50      49      51 0
    -50     -49      51 0
    -50      49     -51 0
     50     -49     -51 0
    -52     -51     -43 0
    -52      51      43 0
     52     -51      43 0
     52      51     -43 0
     44      53      54 0
    -44     -53      54 0
    -44      53     -54 0
     44     -53     -54 0
    -55     -53     -56 0
    -55      53      56 0
     55     -53      56 0
     55      53     -56 0
     57      56      58 0
    -57     -56      58 0
    -57      56     -58 0
     57     -56     -58 0
    -59     -58     -60 0
    -59      58      60 0
     59     -58      60 0
     59      58     -60 0
     61      60      62 0
    -61     -60      62 0
    -61      60     -62 0
     61     -60     -62 0
    -63     -62     -64 0
    -63      62      64 0
     63     -62      64 0
     63      62     -64 0
     65      64      54 0
    -65     -64      54 0
    -65      64     -54 0
     65     -64     -54 0
    -55     -66     -67 0
    -55      66      67 0
     55     -66      67 0
     55      66     -67 0
     68      66      69 0
    -68     -66      69 0
    -68      66     -69 0
     68     -66     -69 0
    -70     -69     -71 0
    -70      69      71 0
     70     -69      71 0
     70      69     -71 0
     72      71      73 0
    -72     -71      73 0
    -72      71     -73 0
     72     -71     -73 0
    -74     -73     -75 0
    -74      73      75 0
     74     -73      75 0
     74      73     -75 0
     76      75      77 0
    -76     -75      77 0
    -76      75     -77 0
     76     -75     -77 0
    -78     -77     -67 0
    -78      77      67 0
     78     -77      67 0
     78      77     -67 0
     68      79      80 0
    -68     -79      80 0
    -68      79     -80 0
     68     -79     -80 0
    -81     -79     -82 0
    -81      79      82 0
     81     -79      82 0
     81      79     -82 0
     83      82      84 0
    -83     -82      84 0
    -83      82     -84 0
     83     -82     -84 0
    -85     -84     -86 0
    -85      84      86 0
     85     -84      86 0
     85      84     -86 0
     87      86      88 0
    -87     -86      88 0
    -87      86     -88 0
     87     -86     -88 0
    -89     -88     -80 0
    -89      88      80 0
     89     -88      80 0
     89      88     -80 0
     81      90      91 0
    -81     -90      91 0
    -81      90     -91 0
     81     -90     -91 0
    -92     -90     -93 0
    -92      90      93 0
     92     -90      93 0
     92      90     -93 0
     94      93      95 0
    -94     -93      95 0
    -94      93     -95 0
     94     -93     -95 0
    -96     -95     -97 0
    -96      95      97 0
     96     -95      97 0
     96      95     -97 0
     98      97      99 0
    -98     -97      99 0
    -98      97     -99 0
     98     -97     -99 0
   -100     -99     -91 0
   -100      99      91 0
    100     -99      91 0
    100      99     -91 0
     92     101     102 0
    -92    -101     102 0
    -92     101    -102 0
     92    -101    -102 0
   -103    -101    -104 0
   -103     101     104 0
    103    -101     104 0
    103     101    -104 0
    105     104     106 0
   -105    -104     106 0
   -105     104    -106 0
    105    -104    -106 0
   -107    -106    -108 0
   -107     106     108 0
    107    -106     108 0
    107     106    -108 0
    109     108     110 0
   -109    -108     110 0
   -109     108    -110 0
    109    -108    -110 0
   -111    -110    -112 0
   -111     110     112 0
    111    -110     112 0
    111     110    -112 0
    113     112     102 0
   -113    -112     102 0
   -113     112    -102 0
    113    -112    -102 0
   -103    -114    -115 0
   -103     114     115 0
    103    -114     115 0
    103     114    -115 0
    116     114     117 0
   -116    -114     117 0
   -116     114    -117 0
    116    -114    -117 0
   -118    -117    -119 0
   -118     117     119 0
    118    -117     119 0
    118     117    -119 0
    120     119     121 0
   -120    -119     121 0
   -120     119    -121 0
    120    -119    -121 0
   -122    -121    -123 0
   -122     121     123 0
    122    -121     123 0
    122     121    -123 0
    124     123     125 0
   -124    -123     125 0
   -124     123    -125 0
    124    -123    -125 0
   -126    -125    -115 0
   -126     125     115 0
    126    -125     115 0
    126     125    -115 0
    116     127     128 0
   -116    -127     128 0
   -116     127    -128 0
    116    -127    -128 0
   -129    -127    -130 0
   -129     127     130 0
    129    -127     130 0
    129     127    -130 0
    131     130     132 0
   -131    -130     132 0
   -131     130    -132 0
    131    -130    -132 0
   -133    -132    -134 0
   -133     132     134 0
    133    -132     134 0
    133     132    -134 0
    135     134     136 0
   -135    -134     136 0
   -135     134    -136 0
    135    -134    -136 0
   -137    -136    -128 0
   -137     136     128 0
    137    -136     128 0
    137     136    -128 0
    129     138     139 0
   -129    -138     139 0
   -129     138    -139 0
    129    -138    -139 0
   -140    -138    -141 0
   -140     138     141 0
    140    -138     141 0
    140     138    -141 0
    142     141     143 0
   -142    -141     143 0
   -142     141    -143 0
    142    -141    -143 0
   -144    -143    -145 0
   -144     143     145 0
    144    -143     145 0
    144     143    -145 0
    146     145     139 0
   -146    -145     139 0
   -146     145    -139 0
    146    -145    -139 0
   -140    -147    -148 0
   -140     147     148 0
    140    -147     148 0
    140     147    -148 0
    149     147     150 0
   -149    -147     150 0
   -149     147    -150 0
    149    -147    -150 0
   -151    -150    -152 0
   -151     150     152 0
    151    -150     152 0
    151     150    -152 0
    153     152     154 0
   -153    -152     154 0
   -153     152    -154 0
    153    -152    -154 0
   -155    -154    -156 0
   -155     154     156 0
    155    -154     156 0
    155     154    -156 0
    157     156     148 0
   -157    -156     148 0
   -157     156    -148 0
    157    -156    -148 0
   -149    -158    -159 0
   -149     158     159 0
    149    -158     159 0
    149     158    -159 0
    160     158     161 0
   -160    -158     161 0
   -160     158    -161 0
    160    -158    -161 0
   -162    -161    -163 0
   -162     161     163 0
    162    -161     163 0
    162     161    -163 0
    164     163     165 0
   -164    -163     165 0
   -164     163    -165 0
    164    -163    -165 0
   -166    -165    -167 0
   -166     165     167 0
    166    -165     167 0
    166     165    -167 0
    168     167     159 0
   -168    -167     159 0
   -168     167    -159 0
    168    -167    -159 0
   -160    -169    -170 0
   -160     169     170 0
    160    -169     170 0
    160     169    -170 0
      4     169     171 0
     -4    -169     171 0
     -4     169    -171 0
      4    -169    -171 0
   -172    -171    -173 0
   -172     171     173 0
    172    -171     173 0
    172     171    -173 0
    174     173     175 0
   -174    -173     175 0
   -174     173    -175 0
    174    -173    -175 0
   -176    -175    -170 0
   -176     175     170 0
    176    -175     170 0
    176     175    -170 0
    177     178     179 0
   -177    -178     179 0
   -177     178    -179 0
    177    -178    -179 0
   -180    -178    -181 0
   -180     178     181 0
    180    -178     181 0
    180     178    -181 0
      6     181     182 0
     -6    -181     182 0
     -6     181    -182 0
      6    -181    -182 0
    -41    -182    -183 0
    -41     182     183 0
     41    -182     183 0
     41     182    -183 0
    146     183     179 0
   -146    -183     179 0
   -146     183    -179 0
    146    -183    -179 0
   -177    -184    -185 0
   -177     184     185 0
    177    -184     185 0
    177     184    -185 0
    186     184     187 0
   -186    -184     187 0
   -186     184    -187 0
    186    -184    -187 0
     -8    -187    -188 0
     -8     187     188 0
      8    -187     188 0
      8     187    -188 0
     15     188     189 0
    -15    -188     189 0
    -15     188    -189 0
     15    -188    -189 0
   -113    -189    -190 0
   -113     189     190 0
    113    -189     190 0
    113     189    -190 0
    155     190     185 0
   -155    -190     185 0
   -155     190    -185 0
    155    -190    -185 0
   -186    -191    -192 0
   -186     191     192 0
    186    -191     192 0
    186     191    -192 0
    193     191     194 0
   -193    -191     194 0
   -193     191    -194 0
    193    -191    -194 0
    -19    -194    -195 0
    -19     194     195 0
     19    -194     195 0
     19     194    -195 0
     26     195     196 0
    -26    -195     196 0
    -26     195    -196 0
     26    -195    -196 0
    -78    -196    -197 0
    -78     196     197 0
     78    -196     197 0
     78     196    -197 0
    122     197     192 0
   -122    -197     192 0
   -122     197    -192 0
    122    -197    -192 0
   -193    -198    -199 0
   -193     198     199 0
    193    -198     199 0
    193     198    -199 0
    200     198     201 0
   -200    -198     201 0
   -200     198    -201 0
    200    -198    -201 0
    -30    -201    -202 0
    -30     201     202 0
     30    -201     202 0
     30     201    -202 0
     37     202     203 0
    -37    -202     203 0
    -37     202    -203 0
     37    -202    -203 0
    -87    -203    -199 0
    -87     203     199 0
     87    -203     199 0
     87     203    -199 0
    200     204     205 0
   -200    -204     205 0
   -200     204    -205 0
    200    -204    -205 0
   -206    -204    -207 0
   -206     204     207 0
    206    -204     207 0
    206     204    -207 0
     10     207     208 0
    -10    -207     208 0
    -10     207    -208 0
     10    -207    -208 0
    -46    -208    -209 0
    -46     208     209 0
     46    -208     209 0
     46     208    -209 0
     76     209     210 0
    -76    -209     210 0
    -76     209    -210 0
     76    -209    -210 0
    -85    -210    -205 0
    -85     210     205 0
     85    -210     205 0
     85     210    -205 0
    206     211     212 0
   -206    -211     212 0
   -206     211    -212 0
    206    -211    -212 0
   -213    -211    -214 0
   -213     211     214 0
    213    -211     214 0
    213     211    -214 0
     17     214     215 0
    -17    -214     215 0
    -17     214    -215 0
     17    -214    -215 0
    -48    -215    -216 0
    -48     215     216 0
     48    -215     216 0
     48     215    -216 0
     57     216     217 0
    -57    -216     217 0
    -57     216    -217 0
     57    -216    -217 0
    -89    -217    -218 0
    -89     217     218 0
     89    -217     218 0
     89     217    -218 0
    157     218     212 0
   -157    -218     212 0
   -157     218    -212 0
    157    -218    -212 0
   -213    -219    -220 0
   -213     219     220 0
    213    -219     220 0
    213     219    -220 0
    221     219     222 0
   -221    -219     222 0
   -221     219    -222 0
    221    -219    -222 0
    -50    -222    -223 0
    -50     222     223 0
     50    -222     223 0
     50     222    -223 0
     59     223     224 0
    -59    -223     224 0
    -59     223    -224 0
     59    -223    -224 0
    -70    -224    -225 0
    -70     224     225 0
     70    -224     225 0
     70     224    -225 0
    126     225     226 0
   -126    -225     226 0
   -126     225    -226 0
    126    -225    -226 0
   -166    -226    -220 0
   -166     226     220 0
    166    -226     220 0
    166     226    -220 0
    221     227     228 0
   -221    -227     228 0
   -221     227    -228 0
    221    -227    -228 0
   -229    -227    -230 0
   -229     227     230 0
    229    -227     230 0
    229     227    -230 0
     63     230     231 0
    -63    -230     231 0
    -63     230    -231 0
     63    -230    -231 0
    -72    -231    -232 0
    -72     231     232 0
     72    -231     232 0
     72     231    -232 0
     83     232     233 0
    -83    -232     233 0
    -83     232    -233 0
     83    -232    -233 0
   -135    -233    -228 0
   -135     233     228 0
    135    -233     228 0
    135     233    -228 0
    229     234     235 0
   -229    -234     235 0
   -229     234    -235 0
    229    -234    -235 0
   -236    -234    -237 0
   -236     234     237 0
    236    -234     237 0
    236     234    -237 0
     52     237     238 0
    -52    -237     238 0
    -52     237    -238 0
     52    -237    -238 0
    -94    -238    -239 0
    -94     238     239 0
     94    -238     239 0
     94     238    -239 0
    111     239     240 0
   -111    -239     240 0
   -111     239    -240 0
    111    -239    -240 0
   -120    -240    -235 0
   -120     240     235 0
    120    -240     235 0
    120     240    -235 0
    236     241     242 0
   -236    -241     242 0
   -236     241    -242 0
    236    -241    -242 0
   -243    -241    -244 0
   -243     241     244 0
    243    -241     244 0
    243     241    -244 0
     21     244     245 0
    -21    -244     245 0
    -21     244    -245 0
     21    -244    -245 0
    -61    -245    -246 0
    -61     245     246 0
     61    -245     246 0
     61     245    -246 0
    105     246     247 0
   -105    -246     247 0
   -105     246    -247 0
    105    -246    -247 0
   -124    -247    -248 0
   -124     247     248 0
    124    -247     248 0
    124     247    -248 0
    133     248     242 0
   -133    -248     242 0
   -133     248    -242 0
    133    -248    -242 0
   -243    -249    -250 0
   -243     249     250 0
    243    -249     250 0
    243     249    -250 0
    251     249     252 0
   -251    -249     252 0
   -251     249    -252 0
    251    -249    -252 0
    -28    -252    -253 0
    -28     252     253 0
     28    -252     253 0
     28     252    -253 0
     96     253     254 0
    -96    -253     254 0
    -96     253    -254 0
     96    -253    -254 0
   -118    -254    -255 0
   -118     254     255 0
    118    -254     255 0
    118     254    -255 0
    137     255     256 0
   -137    -255     256 0
   -137     255    -256 0
    137    -255    -256 0
   -168    -256    -250 0
   -168     256     250 0
    168    -256     250 0
    168     256    -250 0
    251     257     258 0
   -251    -257     258 0
   -251     257    -258 0
    251    -257    -258 0
   -259    -257    -260 0
   -259     257     260 0
    259    -257     260 0
    259     257    -260 0
     98     260     261 0
    -98    -260     261 0
    -98     260    -261 0
     98    -260    -261 0
   -107    -261    -262 0
   -107     261     262 0
    107    -261     262 0
    107     261    -262 0
    131     262     263 0
   -131    -262     263 0
   -131     262    -263 0
    131    -262    -263 0
   -176    -263    -258 0
   -176     263     258 0
    176    -263     258 0
    176     263    -258 0
    259     264     265 0
   -259    -264     265 0
   -259     264    -265 0
    259    -264    -265 0
   -266    -264    -267 0
   -266     264     267 0
    266    -264     267 0
    266     264    -267 0
    100     267     268 0
   -100    -267     268 0
   -100     267    -268 0
    100    -267    -268 0
   -142    -268    -269 0
   -142     268     269 0
    142    -268     269 0
    142     268    -269 0
    153     269     265 0
   -153    -269     265 0
   -153     269    -265 0
    153    -269    -265 0
   -266    -270    -271 0
   -266     270     271 0
    266    -270     271 0
    266     270    -271 0
    272     270     273 0
   -272    -270     273 0
   -272     270    -273 0
    272    -270    -273 0
    -65    -273    -274 0
    -65     273     274 0
     65    -273     274 0
     65     273    -274 0
    109     274     275 0
   -109    -274     275 0
   -109     274    -275 0
    109    -274    -275 0
   -151    -275    -276 0
   -151     275     276 0
    151    -275     276 0
    151     275    -276 0
    164     276     271 0
   -164    -276     271 0
   -164     276    -271 0
    164    -276    -271 0
   -272    -277    -278 0
   -272     277     278 0
    272    -277     278 0
    272     277    -278 0
    279     277     280 0
   -279    -277     280 0
   -279     277    -280 0
    279    -277    -280 0
    -32    -280    -281 0
    -32     280     281 0
     32    -280     281 0
     32     280    -281 0
     74     281     282 0
    -74    -281     282 0
    -74     281    -282 0
     74    -281    -282 0
   -162    -282    -283 0
   -162     282     283 0
    162    -282     283 0
    162     282    -283 0
    174     283     278 0
   -174    -283     278 0
   -174     283    -278 0
    174    -283    -278 0
   -279    -284    -285 0
   -279     284     285 0
    279    -284     285 0
    279     284    -285 0
    180     284     286 0
   -180    -284     286 0
   -180     284    -286 0
    180    -284    -286 0
    -39    -286    -287 0
    -39     286     287 0
     39    -286     287 0
     39     286    -287 0
   -144    -287    -288 0
   -144     287     288 0
    144    -287     288 0
    144     287    -288 0
   -172    -288    -285 0
   -172     288     285 0
    172    -288     285 0
    172     288    -285 0
